
  22   10
  10   10   10   10   10   10   10   10   10   10

   0   0   0   0   0   0   0   0   0   0   0   2 2 5 
   9  10  10  10  10  10  10  10  10  10  10   1 3 
   4  10  10  10  10  10  10  10  10  10  10   2 14 4 
   4  10  10  10  10  10  10  10  10  10  10   1 6 
   7  10  10  10  10  10  10  10  10  10  10   1 6 
   1  10  10  10  10  10  10  10  10  10  10   1 7 
   2  10  10  10  10  10  10  10  10  10  10   2 13 8 
   1  10  10  10  10  10  10  10  10  10  10   2 21 9 
   8  10  10  10  10  10  10  10  10  10  10   1 10 
   9  10  10  10  10  10  10  10  10  10  10   2 20 11 
  10  10  10  10  10  10  10  10  10  10  10   1 12 
   1  10  10  10  10  10  10  10  10  10  10   2 18 15 
   3  10  10  10  10  10  10  10  10  10  10   2 21 15 
   1  10  10  10  10  10  10  10  10  10  10   2 20 16 
   9  10  10  10  10  10  10  10  10  10  10   1 16 
   3  10  10  10  10  10  10  10  10  10  10   1 17 
   7  10  10  10  10  10  10  10  10  10  10   1 19 
  10  10  10  10  10  10  10  10  10  10  10   1 19 
   3  10  10  10  10  10  10  10  10  10  10   1 22
   2  10  10  10  10  10  10  10  10  10  10   1 22
   3  10  10  10  10  10  10  10  10  10  10   1 22
   0   0   0   0   0   0   0   0   0   0   0   0 
